# Solution for model GasLib-40
# Objective value = 1.2505718282239103e+01
loadshed[innode_1] 0
loadshed[innode_2] 0
loadshed[innode_3] 0
loadshed[innode_4] 0
loadshed[innode_5] 0
loadshed[innode_6] 0
loadshed[innode_7] 0
loadshed[innode_8] 0
loadshed[source_1] -2.0722569751609909e-01
loadshed[source_2] -3.7613742789139648e-02
loadshed[source_3] 3.2394435717944614e-01
loadshed[sink_1] 0
loadshed[sink_2] 0
loadshed[sink_3] 0
loadshed[sink_4] 0
loadshed[sink_5] 0
loadshed[sink_6] 0
loadshed[sink_7] 0
loadshed[sink_8] 0
loadshed[sink_9] 0
loadshed[sink_10] 0
loadshed[sink_11] 0
loadshed[sink_12] 7.6468086311780492e-01
loadshed[sink_13] 0
loadshed[sink_14] 0
loadshed[sink_15] 0
loadshed[sink_16] 0
loadshed[sink_17] 0
loadshed[sink_18] 0
loadshed[sink_19] 0
loadshed[sink_20] 0
loadshed[sink_21] 0
loadshed[sink_22] 0
loadshed[sink_23] 0
loadshed[sink_24] 0
loadshed[sink_25] 0
loadshed[sink_26] 0
loadshed[sink_27] 0
loadshed[sink_28] 0
loadshed[sink_29] 0
flow[source_1,sink_3] 1.9085064586079164e+02
flow[innode_1,sink_16] 1.6354166666666970e+01
flow[innode_6,sink_13] 7.6013422999323819e+00
flow[sink_13,sink_14] -8.7528243667342860e+00
flow[sink_14,sink_10] -2.5106991033400845e+01
flow[sink_25,sink_26] 1.6739011505109522e+02
flow[sink_26,sink_9] 1.5103594838442820e+02
flow[sink_9,sink_18] 1.3468178171776154e+02
flow[sink_26,sink_4] 0
flow[sink_4,sink_20] -2.4101103691780089e+01
flow[sink_18,sink_6] 1.1832761505109488e+02
flow[sink_25,innode_8] -1.5814231252745526e+02
flow[sink_6,sink_7] 69.2651150510942
flow[sink_6,sink_22] 3.2708333333333641e+01
flow[sink_7,sink_24] 3.6556781717760906e+01
flow[sink_22,sink_1] 1.6354166666666970e+01
flow[sink_24,sink_21] 2.0202615051094234e+01
flow[sink_21,sink_12] 3.8484483844275656e+00
flow[sink_7,sink_5] 1.6354166666667368e+01
flow[sink_5,sink_17] 0
flow[sink_17,sink_4] -7.7469370251134215e+00
flow[sink_17,sink_8] -8.6072296415532463e+00
flow[sink_3,sink_23] 16.3541666666697
flow[sink_8,sink_20] -2.4961396308219914e+01
flow[sink_25,sink_20] 6.5416666666666671e+01
flow[sink_25,sink_15] -9.8619978156906853e+01
flow[sink_15,sink_29] -6.3946799597627894e+01
flow[sink_29,sink_28] 1.6354166666667879e+01
flow[sink_29,sink_2] 67.3815118926123
flow[sink_2,sink_15] 5.1027345225945631e+01
flow[sink_29,innode_7] -1.6403664482357473e+02
flow[innode_4,sink_19] 4.0919051939596088e+01
flow[sink_19,innode_3] 0
flow[innode_4,innode_5] 6.5958772427139380e+01
flow[sink_27,innode_5] -6.5958772427139380e+01
flow[sink_27,sink_19] 4.9604605760472708e+01
flow[sink_10,sink_11] 3.2708333333333641e+01
flow[sink_10,innode_2] -7.4169491033401513e+01
flow[sink_10,innode_3] 0
flow[innode_6,sink_25] -7.6013422999323819e+00
flow[sink_11,innode_1] 1.6354166666666970e+01
flow[sink_19,innode_2] 7.4169491033401513e+01
flow[source_3,innode_4] 1.0687782436673547e+02
flow[source_2,innode_7] 1.6403664482357473e+02
flow[sink_3,innode_8] 1.5814231252745526e+02
pressure[innode_1] 7.5283649704838922e+01
pressure[innode_2] 7.9355514943588375e+01
pressure[innode_3] 7.5435351012442467e+01
pressure[innode_4] 81.01325
pressure[innode_5] 8.0967880078307772e+01
pressure[innode_6] 74.2740665954608
pressure[innode_7] 81.01325
pressure[innode_8] 80.3753091984767
pressure[source_1] 81.01325
pressure[source_2] 81.01325
pressure[source_3] 81.01325
pressure[sink_1] 4.3311022248159432e+01
pressure[sink_2] 7.4919062622898792e+01
pressure[sink_3] 80.3753091984767
pressure[sink_4] 5.6910764251952692e+01
pressure[sink_5] 3.7659684905046284e+01
pressure[sink_6] 45.4120998585468
pressure[sink_7] 44.461254931941
pressure[sink_8] 5.6939474998996623e+01
pressure[sink_9] 5.3444987771314970e+01
pressure[sink_10] 7.5435351012442467e+01
pressure[sink_11] 7.5283649704838922e+01
pressure[sink_12] 1.01325
pressure[sink_13] 7.4232161665663568e+01
pressure[sink_14] 7.4247825590443625e+01
pressure[sink_15] 7.4752469586981817e+01
pressure[sink_16] 7.4261999870021242e+01
pressure[sink_17] 5.6614701863588074e+01
pressure[sink_18] 4.8571799488020147e+01
pressure[sink_19] 7.9355514943588375e+01
pressure[sink_20] 5.8678933282797693e+01
pressure[sink_21] 2.3827385615798433e+00
pressure[sink_22] 4.4374791390514439e+01
pressure[sink_23] 8.0210591186816913e+01
pressure[sink_24] 2.6064637528027195e+00
pressure[sink_25] 74.2740665954608
pressure[sink_26] 6.2484879095175259e+01
pressure[sink_27] 8.0420544145869073e+01
pressure[sink_28] 7.6330630090169976e+01
pressure[sink_29] 7.6625912363787165e+01
interdiction[source_1,sink_3] 0
interdiction[innode_1,sink_16] 0
interdiction[innode_6,sink_13] 0
interdiction[sink_13,sink_14] 0
interdiction[sink_14,sink_10] 0
interdiction[sink_25,sink_26] 0
interdiction[sink_26,sink_9] 0
interdiction[sink_9,sink_18] 0
interdiction[sink_26,sink_4] 1
interdiction[sink_4,sink_20] 0
interdiction[sink_18,sink_6] 0
interdiction[sink_25,innode_8] 0
interdiction[sink_6,sink_7] 0
interdiction[sink_6,sink_22] 0
interdiction[sink_7,sink_24] 0
interdiction[sink_22,sink_1] 0
interdiction[sink_24,sink_21] 0
interdiction[sink_21,sink_12] 0
interdiction[sink_7,sink_5] 0
interdiction[sink_5,sink_17] 1
interdiction[sink_17,sink_4] 0
interdiction[sink_17,sink_8] 0
interdiction[sink_3,sink_23] 0
interdiction[sink_8,sink_20] 0
interdiction[sink_25,sink_20] 0
interdiction[sink_25,sink_15] 0
interdiction[sink_15,sink_29] 0
interdiction[sink_29,sink_28] 0
interdiction[sink_29,sink_2] 0
interdiction[sink_2,sink_15] 0
interdiction[sink_29,innode_7] 0
interdiction[innode_4,sink_19] 0
interdiction[sink_19,innode_3] 1
interdiction[innode_4,innode_5] 0
interdiction[sink_27,innode_5] 0
interdiction[sink_27,sink_19] 0
interdiction[sink_10,sink_11] 0
interdiction[sink_10,innode_2] 0
interdiction[sink_10,innode_3] 0
interdiction[innode_6,sink_25] 0
interdiction[sink_11,innode_1] 0
interdiction[sink_19,innode_2] 0
interdiction[source_3,innode_4] 0
interdiction[source_2,innode_7] 0
interdiction[sink_3,innode_8] 0
WCcheckFlow[source_1,sink_3] 39
WCcheckFlow[innode_1,sink_16] 1
WCcheckFlow[innode_6,sink_13] 13
WCcheckFlow[sink_13,sink_14] 12
WCcheckFlow[sink_14,sink_10] 11
WCcheckFlow[sink_25,sink_26] 11
WCcheckFlow[sink_26,sink_9] 10
WCcheckFlow[sink_9,sink_18] 9
WCcheckFlow[sink_26,sink_4] 0
WCcheckFlow[sink_4,sink_20] -3
WCcheckFlow[sink_18,sink_6] 8
WCcheckFlow[sink_25,innode_8] -36
WCcheckFlow[sink_6,sink_7] 5
WCcheckFlow[sink_6,sink_22] 2
WCcheckFlow[sink_7,sink_24] 3
WCcheckFlow[sink_22,sink_1] 1
WCcheckFlow[sink_24,sink_21] 2
WCcheckFlow[sink_21,sink_12] 1
WCcheckFlow[sink_7,sink_5] 1
WCcheckFlow[sink_5,sink_17] 0
WCcheckFlow[sink_17,sink_4] -2
WCcheckFlow[sink_17,sink_8] 1
WCcheckFlow[sink_3,sink_23] 1
WCcheckFlow[sink_8,sink_20] 0
WCcheckFlow[sink_25,sink_20] 4
WCcheckFlow[sink_25,sink_15] 6
WCcheckFlow[sink_15,sink_29] 5
WCcheckFlow[sink_29,sink_28] 1
WCcheckFlow[sink_29,sink_2] 1
WCcheckFlow[sink_2,sink_15] 0
WCcheckFlow[sink_29,innode_7] 2
WCcheckFlow[innode_4,sink_19] -4
WCcheckFlow[sink_19,innode_3] 0
WCcheckFlow[innode_4,innode_5] 2
WCcheckFlow[sink_27,innode_5] -1
WCcheckFlow[sink_27,sink_19] 0
WCcheckFlow[sink_10,sink_11] 3
WCcheckFlow[sink_10,innode_2] 6
WCcheckFlow[sink_10,innode_3] 1
WCcheckFlow[innode_6,sink_25] -14
WCcheckFlow[sink_11,innode_1] 2
WCcheckFlow[sink_19,innode_2] -5
WCcheckFlow[source_3,innode_4] -1
WCcheckFlow[source_2,innode_7] -1
WCcheckFlow[sink_3,innode_8] 37
